(set-logic QF_LIA)
(declare-fun x0 () Int)
(declare-fun x1 () Int)
(declare-fun x2 () Int)
(declare-fun x3 () Int)
(declare-fun x4 () Int)
(declare-fun x5 () Int)
(declare-fun x6 () Int)
(declare-fun x7 () Int)
(declare-fun x8 () Int)
(declare-fun x9 () Int)
(declare-fun A0 () Bool)
(declare-fun A1 () Bool)
(declare-fun A2 () Bool)
(declare-fun A3 () Bool)
(declare-fun A4 () Bool)
(declare-fun A5 () Bool)
(declare-fun A6 () Bool)
(declare-fun A7 () Bool)
(declare-fun A8 () Bool)
(declare-fun A9 () Bool)
(assert (let ((.def_0 (not A5))) (let ((.def_1 (* 1 x3))) (let ((.def_2 (* (- 1) x1))) (let ((.def_3 (+ .def_2 .def_1))) (let ((.def_4 (< .def_3 1))) (let ((.def_5 (or .def_4 .def_0))) (let ((.def_6 (* (- 1) x2))) (let ((.def_7 (< .def_6 1))) (let ((.def_8 (not .def_7))) (let ((.def_9 (and .def_8 A0))) (let ((.def_10 (and .def_9 .def_5))) (let ((.def_11 (* 1 x6))) (let ((.def_12 (< .def_11 1))) (let ((.def_13 (= A9 .def_12))) (let ((.def_14 (not .def_13))) (let ((.def_15 (* (- 1) x8))) (let ((.def_16 (* 1 x2))) (let ((.def_17 (+ .def_16 .def_15))) (let ((.def_18 (< .def_17 (- 1)))) (let ((.def_19 (* 1 x5))) (let ((.def_20 (* (- 1) x9))) (let ((.def_21 (+ .def_20 .def_19))) (let ((.def_22 (< .def_21 1))) (let ((.def_23 (not .def_22))) (let ((.def_24 (or .def_23 .def_18))) (let ((.def_25 (not .def_24))) (let ((.def_26 (or .def_25 .def_14))) (let ((.def_27 (and .def_26 .def_10))) (let ((.def_28 (not .def_27))) (let ((.def_29 (* 1 x4))) (let ((.def_30 (< .def_29 1))) (let ((.def_31 (not .def_30))) (let ((.def_32 (= .def_31 A8))) (let ((.def_33 (and A8 .def_0))) (let ((.def_34 (not .def_33))) (let ((.def_35 (or .def_34 .def_32))) (let ((.def_36 (* (- 1) x7))) (let ((.def_37 (+ .def_1 .def_36))) (let ((.def_38 (< .def_37 (- 1)))) (let ((.def_39 (and .def_38 A6))) (let ((.def_40 (not A2))) (let ((.def_41 (* (- 1) x6))) (let ((.def_42 (< .def_41 1))) (let ((.def_43 (not .def_42))) (let ((.def_44 (= .def_43 .def_40))) (let ((.def_45 (not .def_44))) (let ((.def_46 (or .def_45 .def_39))) (let ((.def_47 (or .def_46 .def_35))) (let ((.def_48 (not .def_47))) (let ((.def_49 (and .def_48 .def_28))) (let ((.def_50 (not .def_49))) (let ((.def_51 (< .def_19 1))) (let ((.def_52 (* 1 x8))) (let ((.def_53 (* (- 1) x4))) (let ((.def_54 (+ .def_53 .def_52))) (let ((.def_55 (< .def_54 (- 1)))) (let ((.def_56 (not .def_55))) (let ((.def_57 (and .def_56 .def_51))) (let ((.def_58 (not .def_57))) (let ((.def_59 (not A4))) (let ((.def_60 (not A6))) (let ((.def_61 (or .def_60 .def_59))) (let ((.def_62 (or .def_61 .def_58))) (let ((.def_63 (< .def_52 1))) (let ((.def_64 (not .def_63))) (let ((.def_65 (= .def_60 .def_64))) (let ((.def_66 (< .def_15 (- 1)))) (let ((.def_67 (not .def_66))) (let ((.def_68 (= .def_67 A2))) (let ((.def_69 (not .def_68))) (let ((.def_70 (or .def_69 .def_65))) (let ((.def_71 (not .def_70))) (let ((.def_72 (= .def_71 .def_62))) (let ((.def_73 (not .def_72))) (let ((.def_74 (not .def_12))) (let ((.def_75 (< .def_15 1))) (let ((.def_76 (and .def_75 .def_74))) (let ((.def_77 (not .def_76))) (let ((.def_78 (* (- 1) x0))) (let ((.def_79 (+ .def_19 .def_78))) (let ((.def_80 (< .def_79 1))) (let ((.def_81 (not .def_80))) (let ((.def_82 (and .def_60 .def_81))) (let ((.def_83 (or .def_82 .def_77))) (let ((.def_84 (or A8 .def_42))) (let ((.def_85 (* (- 1) x3))) (let ((.def_86 (+ .def_85 .def_6))) (let ((.def_87 (< .def_86 1))) (let ((.def_88 (not .def_87))) (let ((.def_89 (* (- 1) x5))) (let ((.def_90 (+ .def_89 .def_41))) (let ((.def_91 (< .def_90 (- 1)))) (let ((.def_92 (not .def_91))) (let ((.def_93 (and .def_92 .def_88))) (let ((.def_94 (not .def_93))) (let ((.def_95 (and .def_94 .def_84))) (let ((.def_96 (not .def_95))) (let ((.def_97 (or .def_96 .def_83))) (let ((.def_98 (or .def_97 .def_73))) (let ((.def_99 (not .def_98))) (let ((.def_100 (and .def_99 .def_50))) (let ((.def_101 (not .def_100))) (let ((.def_102 (< .def_85 (- 1)))) (let ((.def_103 (not .def_102))) (let ((.def_104 (and .def_103 .def_0))) (let ((.def_105 (not A1))) (let ((.def_106 (and .def_0 .def_105))) (let ((.def_107 (or .def_106 .def_104))) (let ((.def_108 (not .def_107))) (let ((.def_109 (not A8))) (let ((.def_110 (+ .def_78 .def_2))) (let ((.def_111 (< .def_110 (- 1)))) (let ((.def_112 (not .def_111))) (let ((.def_113 (or .def_112 .def_109))) (let ((.def_114 (not .def_113))) (let ((.def_115 (+ .def_2 .def_85))) (let ((.def_116 (< .def_115 (- 1)))) (let ((.def_117 (not .def_116))) (let ((.def_118 (or .def_117 A4))) (let ((.def_119 (not .def_118))) (let ((.def_120 (and .def_119 .def_114))) (let ((.def_121 (and .def_120 .def_108))) (let ((.def_122 (* 1 x1))) (let ((.def_123 (+ .def_122 .def_52))) (let ((.def_124 (< .def_123 (- 1)))) (let ((.def_125 (not .def_124))) (let ((.def_126 (= A9 .def_125))) (let ((.def_127 (< .def_53 (- 1)))) (let ((.def_128 (not .def_127))) (let ((.def_129 (or A6 .def_128))) (let ((.def_130 (not .def_129))) (let ((.def_131 (or .def_130 .def_126))) (let ((.def_132 (not .def_131))) (let ((.def_133 (< .def_11 (- 1)))) (let ((.def_134 (not .def_133))) (let ((.def_135 (not A3))) (let ((.def_136 (and .def_135 .def_134))) (let ((.def_137 (or .def_40 A0))) (let ((.def_138 (and .def_137 .def_136))) (let ((.def_139 (and .def_138 .def_132))) (let ((.def_140 (= .def_139 .def_121))) (let ((.def_141 (+ .def_89 .def_16))) (let ((.def_142 (< .def_141 1))) (let ((.def_143 (* 1 x9))) (let ((.def_144 (+ .def_143 .def_15))) (let ((.def_145 (< .def_144 1))) (let ((.def_146 (not .def_145))) (let ((.def_147 (or .def_146 .def_142))) (let ((.def_148 (not .def_147))) (let ((.def_149 (+ .def_19 .def_2))) (let ((.def_150 (< .def_149 (- 1)))) (let ((.def_151 (not .def_150))) (let ((.def_152 (+ .def_36 .def_122))) (let ((.def_153 (< .def_152 (- 1)))) (let ((.def_154 (or .def_153 .def_151))) (let ((.def_155 (or .def_154 .def_148))) (let ((.def_156 (not .def_155))) (let ((.def_157 (+ .def_52 .def_20))) (let ((.def_158 (< .def_157 1))) (let ((.def_159 (or .def_158 A4))) (let ((.def_160 (< .def_89 1))) (let ((.def_161 (and A5 .def_160))) (let ((.def_162 (or .def_161 .def_159))) (let ((.def_163 (and .def_162 .def_156))) (let ((.def_164 (not .def_163))) (let ((.def_165 (+ .def_11 .def_19))) (let ((.def_166 (< .def_165 (- 1)))) (let ((.def_167 (or .def_166 A7))) (let ((.def_168 (< .def_19 (- 1)))) (let ((.def_169 (* 1 x0))) (let ((.def_170 (+ .def_169 .def_1))) (let ((.def_171 (< .def_170 1))) (let ((.def_172 (and .def_171 .def_168))) (let ((.def_173 (not .def_172))) (let ((.def_174 (= .def_173 .def_167))) (let ((.def_175 (not .def_174))) (let ((.def_176 (or .def_40 .def_109))) (let ((.def_177 (not .def_176))) (let ((.def_178 (< .def_2 1))) (let ((.def_179 (not .def_178))) (let ((.def_180 (+ .def_20 .def_169))) (let ((.def_181 (< .def_180 (- 1)))) (let ((.def_182 (not .def_181))) (let ((.def_183 (= .def_182 .def_179))) (let ((.def_184 (or .def_183 .def_177))) (let ((.def_185 (not .def_184))) (let ((.def_186 (and .def_185 .def_175))) (let ((.def_187 (and .def_186 .def_164))) (let ((.def_188 (and .def_187 .def_140))) (let ((.def_189 (not .def_188))) (let ((.def_190 (and .def_189 .def_101))) (let ((.def_191 (not .def_190))) (let ((.def_192 (not A0))) (let ((.def_193 (and .def_192 .def_67))) (let ((.def_194 (and .def_60 .def_168))) (let ((.def_195 (or .def_194 .def_193))) (let ((.def_196 (not .def_195))) (let ((.def_197 (and .def_125 A0))) (let ((.def_198 (not .def_197))) (let ((.def_199 (< .def_169 (- 1)))) (let ((.def_200 (not .def_199))) (let ((.def_201 (and .def_192 .def_200))) (let ((.def_202 (or .def_201 .def_198))) (let ((.def_203 (or .def_202 .def_196))) (let ((.def_204 (< .def_90 1))) (let ((.def_205 (not .def_204))) (let ((.def_206 (and A1 .def_205))) (let ((.def_207 (not .def_206))) (let ((.def_208 (+ .def_20 .def_11))) (let ((.def_209 (< .def_208 (- 1)))) (let ((.def_210 (not .def_209))) (let ((.def_211 (and .def_210 .def_66))) (let ((.def_212 (not .def_211))) (let ((.def_213 (or .def_212 .def_207))) (let ((.def_214 (< .def_122 (- 1)))) (let ((.def_215 (and .def_60 .def_214))) (let ((.def_216 (< .def_41 (- 1)))) (let ((.def_217 (not .def_216))) (let ((.def_218 (* 1 x7))) (let ((.def_219 (+ .def_169 .def_218))) (let ((.def_220 (< .def_219 (- 1)))) (let ((.def_221 (or .def_220 .def_217))) (let ((.def_222 (not .def_221))) (let ((.def_223 (or .def_222 .def_215))) (let ((.def_224 (or .def_223 .def_213))) (let ((.def_225 (not .def_224))) (let ((.def_226 (and .def_225 .def_203))) (let ((.def_227 (< .def_36 (- 1)))) (let ((.def_228 (and .def_227 .def_0))) (let ((.def_229 (+ .def_85 .def_11))) (let ((.def_230 (< .def_229 (- 1)))) (let ((.def_231 (or .def_127 .def_230))) (let ((.def_232 (and .def_231 .def_228))) (let ((.def_233 (not .def_232))) (let ((.def_234 (< .def_20 (- 1)))) (let ((.def_235 (not .def_234))) (let ((.def_236 (and .def_235 .def_60))) (let ((.def_237 (+ .def_122 .def_36))) (let ((.def_238 (< .def_237 (- 1)))) (let ((.def_239 (not .def_238))) (let ((.def_240 (or .def_239 A6))) (let ((.def_241 (not .def_240))) (let ((.def_242 (or .def_241 .def_236))) (let ((.def_243 (not .def_242))) (let ((.def_244 (and .def_243 .def_233))) (let ((.def_245 (< .def_1 (- 1)))) (let ((.def_246 (not .def_245))) (let ((.def_247 (< .def_29 (- 1)))) (let ((.def_248 (not .def_247))) (let ((.def_249 (and .def_248 .def_246))) (let ((.def_250 (not .def_249))) (let ((.def_251 (+ .def_89 .def_143))) (let ((.def_252 (< .def_251 1))) (let ((.def_253 (not .def_252))) (let ((.def_254 (= .def_253 .def_238))) (let ((.def_255 (not .def_254))) (let ((.def_256 (or .def_255 .def_250))) (let ((.def_257 (+ .def_169 .def_53))) (let ((.def_258 (< .def_257 (- 1)))) (let ((.def_259 (or A3 .def_258))) (let ((.def_260 (not .def_259))) (let ((.def_261 (+ .def_89 .def_2))) (let ((.def_262 (< .def_261 1))) (let ((.def_263 (not .def_262))) (let ((.def_264 (and .def_263 A5))) (let ((.def_265 (not .def_264))) (let ((.def_266 (or .def_265 .def_260))) (let ((.def_267 (not .def_266))) (let ((.def_268 (or .def_267 .def_256))) (let ((.def_269 (not .def_268))) (let ((.def_270 (or .def_269 .def_244))) (let ((.def_271 (not .def_270))) (let ((.def_272 (or .def_271 .def_226))) (let ((.def_273 (not .def_272))) (let ((.def_274 (< .def_218 (- 1)))) (let ((.def_275 (and .def_59 .def_274))) (let ((.def_276 (not .def_275))) (let ((.def_277 (+ .def_20 .def_2))) (let ((.def_278 (< .def_277 1))) (let ((.def_279 (and .def_278 A2))) (let ((.def_280 (not .def_279))) (let ((.def_281 (or .def_280 .def_276))) (let ((.def_282 (+ .def_11 .def_85))) (let ((.def_283 (< .def_282 (- 1)))) (let ((.def_284 (not .def_283))) (let ((.def_285 (or .def_40 .def_284))) (let ((.def_286 (not .def_285))) (let ((.def_287 (not A9))) (let ((.def_288 (+ .def_16 .def_11))) (let ((.def_289 (< .def_288 (- 1)))) (let ((.def_290 (not .def_289))) (let ((.def_291 (or .def_290 .def_287))) (let ((.def_292 (not .def_291))) (let ((.def_293 (= .def_292 .def_286))) (let ((.def_294 (not .def_293))) (let ((.def_295 (or .def_294 .def_281))) (let ((.def_296 (not .def_295))) (let ((.def_297 (or .def_214 .def_60))) (let ((.def_298 (not .def_297))) (let ((.def_299 (and A8 A1))) (let ((.def_300 (not .def_299))) (let ((.def_301 (or .def_300 .def_298))) (let ((.def_302 (+ .def_143 .def_16))) (let ((.def_303 (< .def_302 1))) (let ((.def_304 (not .def_168))) (let ((.def_305 (or .def_304 .def_303))) (let ((.def_306 (and A6 A1))) (let ((.def_307 (not .def_306))) (let ((.def_308 (or .def_307 .def_305))) (let ((.def_309 (or .def_308 .def_301))) (let ((.def_310 (or .def_309 .def_296))) (let ((.def_311 (+ .def_16 .def_1))) (let ((.def_312 (< .def_311 (- 1)))) (let ((.def_313 (or .def_312 .def_59))) (let ((.def_314 (< .def_1 1))) (let ((.def_315 (or A9 .def_314))) (let ((.def_316 (= .def_315 .def_313))) (let ((.def_317 (not .def_316))) (let ((.def_318 (+ .def_169 .def_2))) (let ((.def_319 (< .def_318 1))) (let ((.def_320 (+ .def_11 .def_20))) (let ((.def_321 (< .def_320 (- 1)))) (let ((.def_322 (or .def_321 .def_319))) (let ((.def_323 (or A1 .def_192))) (let ((.def_324 (not .def_323))) (let ((.def_325 (= .def_324 .def_322))) (let ((.def_326 (not .def_325))) (let ((.def_327 (and .def_326 .def_317))) (let ((.def_328 (or .def_287 A6))) (let ((.def_329 (+ .def_169 .def_16))) (let ((.def_330 (< .def_329 (- 1)))) (let ((.def_331 (not .def_330))) (let ((.def_332 (or .def_135 .def_331))) (let ((.def_333 (or .def_332 .def_328))) (let ((.def_334 (not .def_333))) (let ((.def_335 (< .def_6 (- 1)))) (let ((.def_336 (not .def_335))) (let ((.def_337 (or .def_214 .def_336))) (let ((.def_338 (not .def_337))) (let ((.def_339 (+ .def_143 .def_19))) (let ((.def_340 (< .def_339 1))) (let ((.def_341 (not .def_340))) (let ((.def_342 (and .def_341 .def_66))) (let ((.def_343 (or .def_342 .def_338))) (let ((.def_344 (not .def_343))) (let ((.def_345 (or .def_344 .def_334))) (let ((.def_346 (and .def_345 .def_327))) (let ((.def_347 (= .def_346 .def_310))) (let ((.def_348 (not .def_347))) (let ((.def_349 (and .def_348 .def_273))) (let ((.def_350 (or .def_349 .def_191))) (let ((.def_351 (not .def_350))) (let ((.def_352 (not .def_51))) (let ((.def_353 (+ .def_53 .def_15))) (let ((.def_354 (< .def_353 1))) (let ((.def_355 (not .def_354))) (let ((.def_356 (or .def_355 .def_352))) (let ((.def_357 (not .def_356))) (let ((.def_358 (or .def_135 .def_105))) (let ((.def_359 (and .def_358 .def_357))) (let ((.def_360 (not .def_359))) (let ((.def_361 (+ .def_11 .def_143))) (let ((.def_362 (< .def_361 (- 1)))) (let ((.def_363 (not .def_362))) (let ((.def_364 (and .def_40 .def_363))) (let ((.def_365 (not .def_364))) (let ((.def_366 (+ .def_85 .def_29))) (let ((.def_367 (< .def_366 (- 1)))) (let ((.def_368 (and .def_274 .def_367))) (let ((.def_369 (not .def_368))) (let ((.def_370 (and .def_369 .def_365))) (let ((.def_371 (not .def_370))) (let ((.def_372 (and .def_371 .def_360))) (let ((.def_373 (and .def_192 .def_135))) (let ((.def_374 (not .def_373))) (let ((.def_375 (= A4 .def_168))) (let ((.def_376 (and .def_375 .def_374))) (let ((.def_377 (not .def_376))) (let ((.def_378 (< .def_89 (- 1)))) (let ((.def_379 (and A5 .def_378))) (let ((.def_380 (not .def_379))) (let ((.def_381 (and A0 .def_216))) (let ((.def_382 (not .def_381))) (let ((.def_383 (and .def_382 .def_380))) (let ((.def_384 (or .def_383 .def_377))) (let ((.def_385 (or .def_384 .def_372))) (let ((.def_386 (not .def_385))) (let ((.def_387 (< .def_169 1))) (let ((.def_388 (and .def_387 .def_40))) (let ((.def_389 (not .def_388))) (let ((.def_390 (+ .def_1 .def_41))) (let ((.def_391 (< .def_390 1))) (let ((.def_392 (not .def_391))) (let ((.def_393 (= .def_392 .def_135))) (let ((.def_394 (and .def_393 .def_389))) (let ((.def_395 (not .def_394))) (let ((.def_396 (+ .def_29 .def_169))) (let ((.def_397 (< .def_396 (- 1)))) (let ((.def_398 (not .def_397))) (let ((.def_399 (not .def_387))) (let ((.def_400 (or .def_399 .def_398))) (let ((.def_401 (not .def_400))) (let ((.def_402 (< .def_16 1))) (let ((.def_403 (and .def_402 .def_287))) (let ((.def_404 (and .def_403 .def_401))) (let ((.def_405 (= .def_404 .def_395))) (let ((.def_406 (not A7))) (let ((.def_407 (and .def_406 A9))) (let ((.def_408 (not .def_407))) (let ((.def_409 (= .def_247 .def_109))) (let ((.def_410 (not .def_409))) (let ((.def_411 (and .def_410 .def_408))) (let ((.def_412 (not .def_411))) (let ((.def_413 (+ .def_85 .def_36))) (let ((.def_414 (< .def_413 1))) (let ((.def_415 (not .def_75))) (let ((.def_416 (or .def_415 .def_414))) (let ((.def_417 (or .def_135 .def_60))) (let ((.def_418 (or .def_417 .def_416))) (let ((.def_419 (not .def_418))) (let ((.def_420 (or .def_419 .def_412))) (let ((.def_421 (and .def_420 .def_405))) (let ((.def_422 (not .def_421))) (let ((.def_423 (or .def_422 .def_386))) (let ((.def_424 (+ .def_20 .def_53))) (let ((.def_425 (< .def_424 (- 1)))) (let ((.def_426 (not .def_425))) (let ((.def_427 (+ .def_169 .def_19))) (let ((.def_428 (< .def_427 1))) (let ((.def_429 (or .def_428 .def_426))) (let ((.def_430 (or A8 .def_7))) (let ((.def_431 (not .def_430))) (let ((.def_432 (or .def_431 .def_429))) (let ((.def_433 (not .def_432))) (let ((.def_434 (or A3 .def_246))) (let ((.def_435 (not .def_434))) (let ((.def_436 (< .def_52 (- 1)))) (let ((.def_437 (not .def_436))) (let ((.def_438 (or .def_59 .def_437))) (let ((.def_439 (not .def_438))) (let ((.def_440 (or .def_439 .def_435))) (let ((.def_441 (= .def_440 .def_433))) (let ((.def_442 (not .def_441))) (let ((.def_443 (+ .def_169 .def_52))) (let ((.def_444 (< .def_443 1))) (let ((.def_445 (not .def_444))) (let ((.def_446 (and .def_8 .def_445))) (let ((.def_447 (+ .def_78 .def_1))) (let ((.def_448 (< .def_447 1))) (let ((.def_449 (not .def_448))) (let ((.def_450 (and .def_43 .def_449))) (let ((.def_451 (not .def_450))) (let ((.def_452 (and .def_451 .def_446))) (let ((.def_453 (not .def_452))) (let ((.def_454 (or .def_192 .def_105))) (let ((.def_455 (< .def_53 1))) (let ((.def_456 (not .def_402))) (let ((.def_457 (or .def_456 .def_455))) (let ((.def_458 (and .def_457 .def_454))) (let ((.def_459 (not .def_458))) (let ((.def_460 (or .def_459 .def_453))) (let ((.def_461 (and .def_460 .def_442))) (let ((.def_462 (not .def_461))) (let ((.def_463 (+ .def_218 .def_1))) (let ((.def_464 (< .def_463 (- 1)))) (let ((.def_465 (or .def_135 .def_464))) (let ((.def_466 (not .def_465))) (let ((.def_467 (+ .def_11 .def_29))) (let ((.def_468 (< .def_467 (- 1)))) (let ((.def_469 (not .def_468))) (let ((.def_470 (+ .def_218 .def_53))) (let ((.def_471 (< .def_470 1))) (let ((.def_472 (not .def_471))) (let ((.def_473 (and .def_472 .def_469))) (let ((.def_474 (and .def_473 .def_466))) (let ((.def_475 (not .def_474))) (let ((.def_476 (+ .def_36 .def_1))) (let ((.def_477 (< .def_476 (- 1)))) (let ((.def_478 (or .def_287 .def_477))) (let ((.def_479 (not .def_478))) (let ((.def_480 (+ .def_52 .def_122))) (let ((.def_481 (< .def_480 (- 1)))) (let ((.def_482 (not .def_481))) (let ((.def_483 (or .def_482 A1))) (let ((.def_484 (or .def_483 .def_479))) (let ((.def_485 (or .def_484 .def_475))) (let ((.def_486 (not .def_485))) (let ((.def_487 (+ .def_169 .def_29))) (let ((.def_488 (< .def_487 (- 1)))) (let ((.def_489 (or .def_192 .def_488))) (let ((.def_490 (not .def_489))) (let ((.def_491 (+ .def_41 .def_15))) (let ((.def_492 (< .def_491 1))) (let ((.def_493 (or .def_492 .def_352))) (let ((.def_494 (= .def_493 .def_490))) (let ((.def_495 (and A3 .def_66))) (let ((.def_496 (and .def_109 .def_399))) (let ((.def_497 (not .def_496))) (let ((.def_498 (or .def_497 .def_495))) (let ((.def_499 (not .def_498))) (let ((.def_500 (or .def_499 .def_494))) (let ((.def_501 (not .def_500))) (let ((.def_502 (or .def_501 .def_486))) (let ((.def_503 (and .def_502 .def_462))) (let ((.def_504 (not .def_503))) (let ((.def_505 (and .def_504 .def_423))) (let ((.def_506 (+ .def_11 .def_6))) (let ((.def_507 (< .def_506 1))) (let ((.def_508 (not .def_507))) (let ((.def_509 (and A7 .def_508))) (let ((.def_510 (not .def_227))) (let ((.def_511 (and A9 .def_510))) (let ((.def_512 (not .def_511))) (let ((.def_513 (and .def_512 .def_509))) (let ((.def_514 (or A7 .def_133))) (let ((.def_515 (not .def_514))) (let ((.def_516 (+ .def_53 .def_1))) (let ((.def_517 (< .def_516 1))) (let ((.def_518 (and .def_517 .def_287))) (let ((.def_519 (not .def_518))) (let ((.def_520 (or .def_519 .def_515))) (let ((.def_521 (= .def_520 .def_513))) (let ((.def_522 (+ .def_89 .def_85))) (let ((.def_523 (< .def_522 (- 1)))) (let ((.def_524 (and .def_135 .def_523))) (let ((.def_525 (or .def_178 .def_134))) (let ((.def_526 (not .def_525))) (let ((.def_527 (and .def_526 .def_524))) (let ((.def_528 (< .def_143 (- 1)))) (let ((.def_529 (and .def_287 .def_528))) (let ((.def_530 (and .def_192 A4))) (let ((.def_531 (not .def_530))) (let ((.def_532 (or .def_531 .def_529))) (let ((.def_533 (not .def_532))) (let ((.def_534 (or .def_533 .def_527))) (let ((.def_535 (not .def_534))) (let ((.def_536 (or .def_535 .def_521))) (let ((.def_537 (or A3 .def_59))) (let ((.def_538 (not .def_537))) (let ((.def_539 (+ .def_11 .def_169))) (let ((.def_540 (< .def_539 1))) (let ((.def_541 (or .def_540 .def_227))) (let ((.def_542 (or .def_541 .def_538))) (let ((.def_543 (not .def_214))) (let ((.def_544 (+ .def_20 .def_78))) (let ((.def_545 (< .def_544 1))) (let ((.def_546 (not .def_545))) (let ((.def_547 (or .def_546 .def_543))) (let ((.def_548 (not .def_547))) (let ((.def_549 (or .def_105 A2))) (let ((.def_550 (or .def_549 .def_548))) (let ((.def_551 (not .def_550))) (let ((.def_552 (or .def_551 .def_542))) (let ((.def_553 (+ .def_218 .def_20))) (let ((.def_554 (< .def_553 1))) (let ((.def_555 (not .def_554))) (let ((.def_556 (and .def_555 .def_456))) (let ((.def_557 (not .def_556))) (let ((.def_558 (or .def_437 A7))) (let ((.def_559 (not .def_558))) (let ((.def_560 (and .def_559 .def_557))) (let ((.def_561 (not .def_560))) (let ((.def_562 (or A9 A8))) (let ((.def_563 (not .def_562))) (let ((.def_564 (not .def_312))) (let ((.def_565 (and .def_564 A6))) (let ((.def_566 (= .def_565 .def_563))) (let ((.def_567 (not .def_566))) (let ((.def_568 (and .def_567 .def_561))) (let ((.def_569 (not .def_568))) (let ((.def_570 (= .def_569 .def_552))) (let ((.def_571 (and .def_570 .def_536))) (let ((.def_572 (not .def_571))) (let ((.def_573 (+ .def_218 .def_2))) (let ((.def_574 (< .def_573 (- 1)))) (let ((.def_575 (or .def_574 A1))) (let ((.def_576 (not .def_575))) (let ((.def_577 (or A6 .def_160))) (let ((.def_578 (= .def_577 .def_576))) (let ((.def_579 (not .def_578))) (let ((.def_580 (< .def_16 (- 1)))) (let ((.def_581 (and .def_580 .def_192))) (let ((.def_582 (or A5 .def_60))) (let ((.def_583 (or .def_582 .def_581))) (let ((.def_584 (or .def_583 .def_579))) (let ((.def_585 (not .def_274))) (let ((.def_586 (or .def_105 .def_585))) (let ((.def_587 (not .def_586))) (let ((.def_588 (and A7 .def_64))) (let ((.def_589 (not .def_588))) (let ((.def_590 (and .def_589 .def_587))) (let ((.def_591 (not .def_590))) (let ((.def_592 (or .def_109 .def_304))) (let ((.def_593 (+ .def_78 .def_36))) (let ((.def_594 (< .def_593 1))) (let ((.def_595 (not .def_594))) (let ((.def_596 (or .def_40 .def_595))) (let ((.def_597 (and .def_596 .def_592))) (let ((.def_598 (or .def_597 .def_591))) (let ((.def_599 (and .def_598 .def_584))) (let ((.def_600 (not .def_599))) (let ((.def_601 (or .def_105 A7))) (let ((.def_602 (not .def_601))) (let ((.def_603 (< .def_36 1))) (let ((.def_604 (not .def_603))) (let ((.def_605 (or .def_135 .def_604))) (let ((.def_606 (and .def_605 .def_602))) (let ((.def_607 (+ .def_20 .def_16))) (let ((.def_608 (< .def_607 1))) (let ((.def_609 (or .def_608 .def_406))) (let ((.def_610 (not .def_609))) (let ((.def_611 (= .def_336 .def_59))) (let ((.def_612 (and .def_611 .def_610))) (let ((.def_613 (or .def_612 .def_606))) (let ((.def_614 (or A7 .def_406))) (let ((.def_615 (not .def_614))) (let ((.def_616 (or A2 .def_335))) (let ((.def_617 (not .def_616))) (let ((.def_618 (and .def_617 .def_615))) (let ((.def_619 (< .def_20 1))) (let ((.def_620 (not .def_619))) (let ((.def_621 (not .def_160))) (let ((.def_622 (= .def_621 .def_620))) (let ((.def_623 (not .def_622))) (let ((.def_624 (or A6 .def_12))) (let ((.def_625 (and .def_624 .def_623))) (let ((.def_626 (and .def_625 .def_618))) (let ((.def_627 (or .def_626 .def_613))) (let ((.def_628 (or .def_627 .def_600))) (let ((.def_629 (not .def_628))) (let ((.def_630 (and .def_629 .def_572))) (let ((.def_631 (not .def_630))) (let ((.def_632 (or .def_631 .def_505))) (let ((.def_633 (and .def_632 .def_351))) (let ((.def_634 (<= x9 1))) (let ((.def_635 (<= 0 x9))) (let ((.def_636 (<= x8 1))) (let ((.def_637 (<= 0 x8))) (let ((.def_638 (<= x7 1))) (let ((.def_639 (<= 0 x7))) (let ((.def_640 (<= x6 1))) (let ((.def_641 (<= 0 x6))) (let ((.def_642 (<= x5 1))) (let ((.def_643 (<= 0 x5))) (let ((.def_644 (<= x4 1))) (let ((.def_645 (<= 0 x4))) (let ((.def_646 (<= x3 1))) (let ((.def_647 (<= 0 x3))) (let ((.def_648 (<= x2 1))) (let ((.def_649 (<= 0 x2))) (let ((.def_650 (<= x1 1))) (let ((.def_651 (<= 0 x1))) (let ((.def_652 (<= x0 1))) (let ((.def_653 (<= 0 x0))) (let ((.def_654 (and .def_653 .def_652 .def_651 .def_650 .def_649 .def_648 .def_647 .def_646 .def_645 .def_644 .def_643 .def_642 .def_641 .def_640 .def_639 .def_638 .def_637 .def_636 .def_635 .def_634 .def_633))) .def_654))))))))))))))))))))))))))))))))))))))))))))))))))))))))))))))))))))))))))))))))))))))))))))))))))))))))))))))))))))))))))))))))))))))))))))))))))))))))))))))))))))))))))))))))))))))))))))))))))))))))))))))))))))))))))))))))))))))))))))))))))))))))))))))))))))))))))))))))))))))))))))))))))))))))))))))))))))))))))))))))))))))))))))))))))))))))))))))))))))))))))))))))))))))))))))))))))))))))))))))))))))))))))))))))))))))))))))))))))))))))))))))))))))))))))))))))))))))))))))))))))))))))))))))))))))))))))))))))))))))))))))))))))))))))))))))))))))))))))))))))))))))))))))))))))))))))))))))))))))))))))))))))))))))))))))))))))))))))))))))))))))))))))))))))
(check-sat)
